Problem:    Detersivi
Rows:       25
Columns:    12
Non-zeros:  60
Status:     OPTIMAL
Objective:  z = 2833.333333 (MAXimum)

   No.   Row name   St   Activity     Lower bound   Upper bound    Marginal
------ ------------ -- ------------- ------------- ------------- -------------
     1 prodotti[1]  NS             0            -0             =         < eps
     2 prodotti[2]  NS             0            -0             =       2.35294 
     3 prodotti[3]  NS             0            -0             =         < eps
     4 valMin[1,1]  NL             0            -0                   -0.027451 
     5 valMin[1,2]  B              0            -0               
     6 valMin[1,3]  NL             0            -0                   -0.027451 
     7 valMin[2,1]  NL             0            -0                  -0.0607843 
     8 valMin[2,2]  B              0            -0               
     9 valMin[2,3]  NL             0            -0                  -0.0607843 
    10 valMin[3,1]  B        1666.67            -0               
    11 valMin[3,2]  B              0            -0               
    12 valMin[3,3]  B              0            -0               
    13 valMax[1,1]  B       -3333.33                          -0 
    14 valMax[1,2]  B              0                          -0 
    15 valMax[1,3]  B       -3333.33                          -0 
    16 valMax[2,1]  B       -1666.67                          -0 
    17 valMax[2,2]  B              0                          -0 
    18 valMax[2,3]  B         -20000                          -0 
    19 valMax[3,1]  B       -1666.67                          -0 
    20 valMax[3,2]  NU             0                          -0     0.0235294 
    21 valMax[3,3]  B       -13333.3                          -0 
    22 disponibilita[1]
                    NU           700                         700        2.7451 
    23 disponibilita[2]
                    NU           150                         150       6.07843 
    24 disponibilita[3]
                    B            150                         200 
    25 z            B        2833.33                             

   No. Column name  St   Activity     Lower bound   Upper bound    Marginal
------ ------------ -- ------------- ------------- ------------- -------------
     1 x[1]         B        333.333             0               
     2 x[2]         B              0             0               
     3 x[3]         B        666.667             0               
     4 y[1,1]       B        266.667             0               
     5 y[1,2]       B        16.6667             0               
     6 y[1,3]       B             50             0               
     7 y[2,1]       NL             0             0                   -0.392157 
     8 y[2,2]       NL             0             0                    -3.72549 
     9 y[2,3]       B              0             0               
    10 y[3,1]       B        433.333             0               
    11 y[3,2]       B        133.333             0               
    12 y[3,3]       B            100             0               

Karush-Kuhn-Tucker optimality conditions:

KKT.PE: max.abs.err = 1.82e-012 on row 9
        max.rel.err = 8.52e-017 on row 3
        High quality

KKT.PB: max.abs.err = 7.28e-012 on row 12
        max.rel.err = 7.28e-012 on row 12
        High quality

KKT.DE: max.abs.err = 8.88e-016 on column 5
        max.rel.err = 7.78e-017 on column 9
        High quality

KKT.DB: max.abs.err = 0.00e+000 on row 0
        max.rel.err = 0.00e+000 on row 0
        High quality

End of output
